100
32
2
10
1
1
20
20
21
27
1
22
4
5
3
10
22
3
8
22
2
1
22
2
24
23
1
2
24
14
25
26
4
3
11
16
12
13
12
3
2
14
1
3
2
29
13
11
13
2
25
5
2
14
6
1
1
1
1
11
25
3
2
26
3
1
3
10
16
2
1
1
1
26
17
3
1
27
2
3
10
1
6
9
8
1
8
1
8
2
1
16
22
21
2
2
4
3
2
11
3
15